
;this file is automatically generated: Tue Feb 23 13:38:04 CST 2021

;declarations generated

(declare-fun oclExcludes ( Int Int) Bool)
(declare-fun Cardinality ( Int) Int)
(declare-fun type_8a20359a_f817_4615_b931_db22beaa4395_Class1 ( Int) Bool)
(declare-fun type_8a20359a_f817_4615_b931_db22beaa4395_Class0 ( Int) Bool)
(declare-fun type_8a20359a_f817_4615_b931_db22beaa4395_Class3 ( Int) Bool)
(declare-fun type_8a20359a_f817_4615_b931_db22beaa4395_Class2 ( Int) Bool)
(declare-fun type_8a20359a_f817_4615_b931_db22beaa4395_Class9 ( Int) Bool)
(declare-fun type_8a20359a_f817_4615_b931_db22beaa4395_Class8 ( Int) Bool)
(declare-fun type_8a20359a_f817_4615_b931_db22beaa4395_Class5 ( Int) Bool)
(declare-fun type_8a20359a_f817_4615_b931_db22beaa4395_Class4 ( Int) Bool)
(declare-fun type_8a20359a_f817_4615_b931_db22beaa4395_Class7 ( Int) Bool)
(declare-fun type_8a20359a_f817_4615_b931_db22beaa4395_Class6 ( Int) Bool)
(declare-fun class4_Class4IntAttr4 ( Int) Int)
(declare-fun class4_Class4IntAttr3 ( Int) Int)
(declare-fun type_8a20359a_f817_4615_b931_db22beaa4395_Class21 ( Int) Bool)
(declare-fun type_8a20359a_f817_4615_b931_db22beaa4395_Class20 ( Int) Bool)
(declare-fun type_8a20359a_f817_4615_b931_db22beaa4395_Class23 ( Int) Bool)
(declare-fun type_8a20359a_f817_4615_b931_db22beaa4395_Class22 ( Int) Bool)
(declare-fun type_8a20359a_f817_4615_b931_db22beaa4395_Class25 ( Int) Bool)
(declare-fun type_8a20359a_f817_4615_b931_db22beaa4395_Class24 ( Int) Bool)
(declare-fun type_8a20359a_f817_4615_b931_db22beaa4395_Class27 ( Int) Bool)
(declare-fun type_8a20359a_f817_4615_b931_db22beaa4395_Class26 ( Int) Bool)
(declare-fun type_8a20359a_f817_4615_b931_db22beaa4395_Class29 ( Int) Bool)
(declare-fun type_8a20359a_f817_4615_b931_db22beaa4395_Class28 ( Int) Bool)
(declare-fun type_8a20359a_f817_4615_b931_db22beaa4395_Class10 ( Int) Bool)
(declare-fun type_8a20359a_f817_4615_b931_db22beaa4395_Class12 ( Int) Bool)
(declare-fun type_8a20359a_f817_4615_b931_db22beaa4395_Class11 ( Int) Bool)
(declare-fun type_8a20359a_f817_4615_b931_db22beaa4395_Class14 ( Int) Bool)
(declare-fun type_8a20359a_f817_4615_b931_db22beaa4395_Class13 ( Int) Bool)
(declare-fun type_8a20359a_f817_4615_b931_db22beaa4395_Class16 ( Int) Bool)
(declare-fun type_8a20359a_f817_4615_b931_db22beaa4395_Class15 ( Int) Bool)
(declare-fun type_8a20359a_f817_4615_b931_db22beaa4395_Class18 ( Int) Bool)
(declare-fun type_8a20359a_f817_4615_b931_db22beaa4395_Class17 ( Int) Bool)
(declare-fun type_8a20359a_f817_4615_b931_db22beaa4395_Class19 ( Int) Bool)
(declare-fun oclSelect ( Int Bool) Int)
(declare-fun type_8a20359a_f817_4615_b931_db22beaa4395_Class41 ( Int) Bool)
(declare-fun type_8a20359a_f817_4615_b931_db22beaa4395_Class40 ( Int) Bool)
(declare-fun type_8a20359a_f817_4615_b931_db22beaa4395_Class43 ( Int) Bool)
(declare-fun type_8a20359a_f817_4615_b931_db22beaa4395_Class42 ( Int) Bool)
(declare-fun type_8a20359a_f817_4615_b931_db22beaa4395_Class45 ( Int) Bool)
(declare-fun type_8a20359a_f817_4615_b931_db22beaa4395_Class44 ( Int) Bool)
(declare-fun obj_ba9a6edc_4303_48f4_b666_c05e102d831e ( Int) Int)
(declare-fun type_8a20359a_f817_4615_b931_db22beaa4395_Class30 ( Int) Bool)
(declare-fun type_8a20359a_f817_4615_b931_db22beaa4395_Class32 ( Int) Bool)
(declare-fun type_8a20359a_f817_4615_b931_db22beaa4395_Class31 ( Int) Bool)
(declare-fun type_8a20359a_f817_4615_b931_db22beaa4395_Class34 ( Int) Bool)
(declare-fun type_8a20359a_f817_4615_b931_db22beaa4395_Class33 ( Int) Bool)
(declare-fun type_8a20359a_f817_4615_b931_db22beaa4395_Class36 ( Int) Bool)
(declare-fun type_8a20359a_f817_4615_b931_db22beaa4395_Class35 ( Int) Bool)
(declare-fun type_8a20359a_f817_4615_b931_db22beaa4395_Class38 ( Int) Bool)
(declare-fun type_8a20359a_f817_4615_b931_db22beaa4395_Class37 ( Int) Bool)
(declare-fun type_8a20359a_f817_4615_b931_db22beaa4395_Class39 ( Int) Bool)
(declare-fun Enum0 ( Int) Int)
(declare-fun Enum1 ( Int) Int)
(declare-fun Enum2 ( Int) Int)
(declare-fun container_ ( Int) Int)
(declare-fun oclIncludes ( Int Int) Bool)
(declare-fun ObjAt ( Int Int) Int)

;formula(s) generated
(assert (! (forall ((c4_2 Int)(c4_1 Int)) (=> (and (and (and (and (and (and (and ( type_8a20359a_f817_4615_b931_db22beaa4395_Class4 c4_1 )  ( type_8a20359a_f817_4615_b931_db22beaa4395_Class33 c4_1 ) ) ( type_8a20359a_f817_4615_b931_db22beaa4395_Class13 c4_1 ) ) ( type_8a20359a_f817_4615_b931_db22beaa4395_Class16 c4_1 ) ) ( type_8a20359a_f817_4615_b931_db22beaa4395_Class15 c4_1 ) ) ( type_8a20359a_f817_4615_b931_db22beaa4395_Class41 c4_1 ) ) ( type_8a20359a_f817_4615_b931_db22beaa4395_Class2 c4_1 ) ) (and (and (and (and (and (and ( type_8a20359a_f817_4615_b931_db22beaa4395_Class4 c4_2 )  ( type_8a20359a_f817_4615_b931_db22beaa4395_Class33 c4_2 ) ) ( type_8a20359a_f817_4615_b931_db22beaa4395_Class13 c4_2 ) ) ( type_8a20359a_f817_4615_b931_db22beaa4395_Class16 c4_2 ) ) ( type_8a20359a_f817_4615_b931_db22beaa4395_Class15 c4_2 ) ) ( type_8a20359a_f817_4615_b931_db22beaa4395_Class41 c4_2 ) ) ( type_8a20359a_f817_4615_b931_db22beaa4395_Class2 c4_2 ) )) (< ( class4_Class4IntAttr4 ( obj_ba9a6edc_4303_48f4_b666_c05e102d831e c4_1 )  )  ( class4_Class4IntAttr3 ( obj_ba9a6edc_4303_48f4_b666_c05e102d831e c4_2 )  ) ))):named l0))
(assert (! (forall ((v Int)) (=> (and (and (and (and (and (and ( type_8a20359a_f817_4615_b931_db22beaa4395_Class4 v )  ( type_8a20359a_f817_4615_b931_db22beaa4395_Class33 v ) ) ( type_8a20359a_f817_4615_b931_db22beaa4395_Class13 v ) ) ( type_8a20359a_f817_4615_b931_db22beaa4395_Class16 v ) ) ( type_8a20359a_f817_4615_b931_db22beaa4395_Class15 v ) ) ( type_8a20359a_f817_4615_b931_db22beaa4395_Class41 v ) ) ( type_8a20359a_f817_4615_b931_db22beaa4395_Class2 v ) ) (<= ( class4_Class4IntAttr4 ( obj_ba9a6edc_4303_48f4_b666_c05e102d831e v )  )  14))):named l1))
(assert (! (exists ((o Int)) (and (and (and ( type_8a20359a_f817_4615_b931_db22beaa4395_Class0 ( obj_ba9a6edc_4303_48f4_b666_c05e102d831e o )  )  ( type_8a20359a_f817_4615_b931_db22beaa4395_Class22 ( obj_ba9a6edc_4303_48f4_b666_c05e102d831e o )  ) ) ( type_8a20359a_f817_4615_b931_db22beaa4395_Class35 ( obj_ba9a6edc_4303_48f4_b666_c05e102d831e o )  ) ) ( type_8a20359a_f817_4615_b931_db22beaa4395_Class2 ( obj_ba9a6edc_4303_48f4_b666_c05e102d831e o )  ) )):named c0))
(assert (! (exists ((o Int)) ( type_8a20359a_f817_4615_b931_db22beaa4395_Class1 ( obj_ba9a6edc_4303_48f4_b666_c05e102d831e o )  ) ):named c1))
(assert (! (exists ((o Int)) (and (and (and (and ( type_8a20359a_f817_4615_b931_db22beaa4395_Class10 ( obj_ba9a6edc_4303_48f4_b666_c05e102d831e o )  )  ( type_8a20359a_f817_4615_b931_db22beaa4395_Class16 ( obj_ba9a6edc_4303_48f4_b666_c05e102d831e o )  ) ) ( type_8a20359a_f817_4615_b931_db22beaa4395_Class15 ( obj_ba9a6edc_4303_48f4_b666_c05e102d831e o )  ) ) ( type_8a20359a_f817_4615_b931_db22beaa4395_Class41 ( obj_ba9a6edc_4303_48f4_b666_c05e102d831e o )  ) ) ( type_8a20359a_f817_4615_b931_db22beaa4395_Class2 ( obj_ba9a6edc_4303_48f4_b666_c05e102d831e o )  ) )):named c2))
(assert (! (exists ((o Int)) ( type_8a20359a_f817_4615_b931_db22beaa4395_Class11 ( obj_ba9a6edc_4303_48f4_b666_c05e102d831e o )  ) ):named c3))
(assert (! (exists ((o Int)) (and (and (and (and ( type_8a20359a_f817_4615_b931_db22beaa4395_Class12 ( obj_ba9a6edc_4303_48f4_b666_c05e102d831e o )  )  ( type_8a20359a_f817_4615_b931_db22beaa4395_Class22 ( obj_ba9a6edc_4303_48f4_b666_c05e102d831e o )  ) ) ( type_8a20359a_f817_4615_b931_db22beaa4395_Class35 ( obj_ba9a6edc_4303_48f4_b666_c05e102d831e o )  ) ) ( type_8a20359a_f817_4615_b931_db22beaa4395_Class0 ( obj_ba9a6edc_4303_48f4_b666_c05e102d831e o )  ) ) ( type_8a20359a_f817_4615_b931_db22beaa4395_Class2 ( obj_ba9a6edc_4303_48f4_b666_c05e102d831e o )  ) )):named c4))
(assert (! (exists ((o Int)) (and (and (and ( type_8a20359a_f817_4615_b931_db22beaa4395_Class13 ( obj_ba9a6edc_4303_48f4_b666_c05e102d831e o )  )  ( type_8a20359a_f817_4615_b931_db22beaa4395_Class16 ( obj_ba9a6edc_4303_48f4_b666_c05e102d831e o )  ) ) ( type_8a20359a_f817_4615_b931_db22beaa4395_Class15 ( obj_ba9a6edc_4303_48f4_b666_c05e102d831e o )  ) ) ( type_8a20359a_f817_4615_b931_db22beaa4395_Class2 ( obj_ba9a6edc_4303_48f4_b666_c05e102d831e o )  ) )):named c5))
(assert (! (exists ((o Int)) (and (and (and (and (and (and (and ( type_8a20359a_f817_4615_b931_db22beaa4395_Class14 ( obj_ba9a6edc_4303_48f4_b666_c05e102d831e o )  )  ( type_8a20359a_f817_4615_b931_db22beaa4395_Class33 ( obj_ba9a6edc_4303_48f4_b666_c05e102d831e o )  ) ) ( type_8a20359a_f817_4615_b931_db22beaa4395_Class13 ( obj_ba9a6edc_4303_48f4_b666_c05e102d831e o )  ) ) ( type_8a20359a_f817_4615_b931_db22beaa4395_Class16 ( obj_ba9a6edc_4303_48f4_b666_c05e102d831e o )  ) ) ( type_8a20359a_f817_4615_b931_db22beaa4395_Class15 ( obj_ba9a6edc_4303_48f4_b666_c05e102d831e o )  ) ) ( type_8a20359a_f817_4615_b931_db22beaa4395_Class4 ( obj_ba9a6edc_4303_48f4_b666_c05e102d831e o )  ) ) ( type_8a20359a_f817_4615_b931_db22beaa4395_Class41 ( obj_ba9a6edc_4303_48f4_b666_c05e102d831e o )  ) ) ( type_8a20359a_f817_4615_b931_db22beaa4395_Class2 ( obj_ba9a6edc_4303_48f4_b666_c05e102d831e o )  ) )):named c6))
(assert (! (exists ((o Int)) (and ( type_8a20359a_f817_4615_b931_db22beaa4395_Class15 ( obj_ba9a6edc_4303_48f4_b666_c05e102d831e o )  )  ( type_8a20359a_f817_4615_b931_db22beaa4395_Class2 ( obj_ba9a6edc_4303_48f4_b666_c05e102d831e o )  ) )):named c7))
(assert (! (exists ((o Int)) (and (and ( type_8a20359a_f817_4615_b931_db22beaa4395_Class16 ( obj_ba9a6edc_4303_48f4_b666_c05e102d831e o )  )  ( type_8a20359a_f817_4615_b931_db22beaa4395_Class15 ( obj_ba9a6edc_4303_48f4_b666_c05e102d831e o )  ) ) ( type_8a20359a_f817_4615_b931_db22beaa4395_Class2 ( obj_ba9a6edc_4303_48f4_b666_c05e102d831e o )  ) )):named c8))
(assert (! (exists ((o Int)) (and (and (and (and ( type_8a20359a_f817_4615_b931_db22beaa4395_Class17 ( obj_ba9a6edc_4303_48f4_b666_c05e102d831e o )  )  ( type_8a20359a_f817_4615_b931_db22beaa4395_Class24 ( obj_ba9a6edc_4303_48f4_b666_c05e102d831e o )  ) ) ( type_8a20359a_f817_4615_b931_db22beaa4395_Class26 ( obj_ba9a6edc_4303_48f4_b666_c05e102d831e o )  ) ) ( type_8a20359a_f817_4615_b931_db22beaa4395_Class32 ( obj_ba9a6edc_4303_48f4_b666_c05e102d831e o )  ) ) ( type_8a20359a_f817_4615_b931_db22beaa4395_Class2 ( obj_ba9a6edc_4303_48f4_b666_c05e102d831e o )  ) )):named c9))
(assert (! (exists ((o Int)) ( type_8a20359a_f817_4615_b931_db22beaa4395_Class18 ( obj_ba9a6edc_4303_48f4_b666_c05e102d831e o )  ) ):named c10))
(assert (! (exists ((o Int)) ( type_8a20359a_f817_4615_b931_db22beaa4395_Class19 ( obj_ba9a6edc_4303_48f4_b666_c05e102d831e o )  ) ):named c11))
(assert (! (exists ((o Int)) ( type_8a20359a_f817_4615_b931_db22beaa4395_Class2 ( obj_ba9a6edc_4303_48f4_b666_c05e102d831e o )  ) ):named c12))
(assert (! (exists ((o Int)) (and (and ( type_8a20359a_f817_4615_b931_db22beaa4395_Class20 ( obj_ba9a6edc_4303_48f4_b666_c05e102d831e o )  )  ( type_8a20359a_f817_4615_b931_db22beaa4395_Class21 ( obj_ba9a6edc_4303_48f4_b666_c05e102d831e o )  ) ) ( type_8a20359a_f817_4615_b931_db22beaa4395_Class2 ( obj_ba9a6edc_4303_48f4_b666_c05e102d831e o )  ) )):named c13))
(assert (! (exists ((o Int)) (and ( type_8a20359a_f817_4615_b931_db22beaa4395_Class21 ( obj_ba9a6edc_4303_48f4_b666_c05e102d831e o )  )  ( type_8a20359a_f817_4615_b931_db22beaa4395_Class2 ( obj_ba9a6edc_4303_48f4_b666_c05e102d831e o )  ) )):named c14))
(assert (! (exists ((o Int)) (and (and ( type_8a20359a_f817_4615_b931_db22beaa4395_Class22 ( obj_ba9a6edc_4303_48f4_b666_c05e102d831e o )  )  ( type_8a20359a_f817_4615_b931_db22beaa4395_Class35 ( obj_ba9a6edc_4303_48f4_b666_c05e102d831e o )  ) ) ( type_8a20359a_f817_4615_b931_db22beaa4395_Class2 ( obj_ba9a6edc_4303_48f4_b666_c05e102d831e o )  ) )):named c15))
(assert (! (exists ((o Int)) (and (and (and (and (and (and ( type_8a20359a_f817_4615_b931_db22beaa4395_Class23 ( obj_ba9a6edc_4303_48f4_b666_c05e102d831e o )  )  ( type_8a20359a_f817_4615_b931_db22beaa4395_Class12 ( obj_ba9a6edc_4303_48f4_b666_c05e102d831e o )  ) ) ( type_8a20359a_f817_4615_b931_db22beaa4395_Class22 ( obj_ba9a6edc_4303_48f4_b666_c05e102d831e o )  ) ) ( type_8a20359a_f817_4615_b931_db22beaa4395_Class25 ( obj_ba9a6edc_4303_48f4_b666_c05e102d831e o )  ) ) ( type_8a20359a_f817_4615_b931_db22beaa4395_Class35 ( obj_ba9a6edc_4303_48f4_b666_c05e102d831e o )  ) ) ( type_8a20359a_f817_4615_b931_db22beaa4395_Class0 ( obj_ba9a6edc_4303_48f4_b666_c05e102d831e o )  ) ) ( type_8a20359a_f817_4615_b931_db22beaa4395_Class2 ( obj_ba9a6edc_4303_48f4_b666_c05e102d831e o )  ) )):named c16))
(assert (! (exists ((o Int)) (and (and (and ( type_8a20359a_f817_4615_b931_db22beaa4395_Class24 ( obj_ba9a6edc_4303_48f4_b666_c05e102d831e o )  )  ( type_8a20359a_f817_4615_b931_db22beaa4395_Class26 ( obj_ba9a6edc_4303_48f4_b666_c05e102d831e o )  ) ) ( type_8a20359a_f817_4615_b931_db22beaa4395_Class32 ( obj_ba9a6edc_4303_48f4_b666_c05e102d831e o )  ) ) ( type_8a20359a_f817_4615_b931_db22beaa4395_Class2 ( obj_ba9a6edc_4303_48f4_b666_c05e102d831e o )  ) )):named c17))
(assert (! (exists ((o Int)) (and (and (and (and (and ( type_8a20359a_f817_4615_b931_db22beaa4395_Class25 ( obj_ba9a6edc_4303_48f4_b666_c05e102d831e o )  )  ( type_8a20359a_f817_4615_b931_db22beaa4395_Class12 ( obj_ba9a6edc_4303_48f4_b666_c05e102d831e o )  ) ) ( type_8a20359a_f817_4615_b931_db22beaa4395_Class22 ( obj_ba9a6edc_4303_48f4_b666_c05e102d831e o )  ) ) ( type_8a20359a_f817_4615_b931_db22beaa4395_Class35 ( obj_ba9a6edc_4303_48f4_b666_c05e102d831e o )  ) ) ( type_8a20359a_f817_4615_b931_db22beaa4395_Class0 ( obj_ba9a6edc_4303_48f4_b666_c05e102d831e o )  ) ) ( type_8a20359a_f817_4615_b931_db22beaa4395_Class2 ( obj_ba9a6edc_4303_48f4_b666_c05e102d831e o )  ) )):named c18))
(assert (! (exists ((o Int)) (and (and ( type_8a20359a_f817_4615_b931_db22beaa4395_Class26 ( obj_ba9a6edc_4303_48f4_b666_c05e102d831e o )  )  ( type_8a20359a_f817_4615_b931_db22beaa4395_Class32 ( obj_ba9a6edc_4303_48f4_b666_c05e102d831e o )  ) ) ( type_8a20359a_f817_4615_b931_db22beaa4395_Class2 ( obj_ba9a6edc_4303_48f4_b666_c05e102d831e o )  ) )):named c19))
(assert (! (exists ((o Int)) (and ( type_8a20359a_f817_4615_b931_db22beaa4395_Class27 ( obj_ba9a6edc_4303_48f4_b666_c05e102d831e o )  )  ( type_8a20359a_f817_4615_b931_db22beaa4395_Class2 ( obj_ba9a6edc_4303_48f4_b666_c05e102d831e o )  ) )):named c20))
(assert (! (exists ((o Int)) ( type_8a20359a_f817_4615_b931_db22beaa4395_Class28 ( obj_ba9a6edc_4303_48f4_b666_c05e102d831e o )  ) ):named c21))
(assert (! (exists ((o Int)) ( type_8a20359a_f817_4615_b931_db22beaa4395_Class29 ( obj_ba9a6edc_4303_48f4_b666_c05e102d831e o )  ) ):named c22))
(assert (! (exists ((o Int)) ( type_8a20359a_f817_4615_b931_db22beaa4395_Class3 ( obj_ba9a6edc_4303_48f4_b666_c05e102d831e o )  ) ):named c23))
(assert (! (exists ((o Int)) (and ( type_8a20359a_f817_4615_b931_db22beaa4395_Class30 ( obj_ba9a6edc_4303_48f4_b666_c05e102d831e o )  )  ( type_8a20359a_f817_4615_b931_db22beaa4395_Class2 ( obj_ba9a6edc_4303_48f4_b666_c05e102d831e o )  ) )):named c24))
(assert (! (exists ((o Int)) (and (and (and (and ( type_8a20359a_f817_4615_b931_db22beaa4395_Class31 ( obj_ba9a6edc_4303_48f4_b666_c05e102d831e o )  )  ( type_8a20359a_f817_4615_b931_db22beaa4395_Class16 ( obj_ba9a6edc_4303_48f4_b666_c05e102d831e o )  ) ) ( type_8a20359a_f817_4615_b931_db22beaa4395_Class15 ( obj_ba9a6edc_4303_48f4_b666_c05e102d831e o )  ) ) ( type_8a20359a_f817_4615_b931_db22beaa4395_Class41 ( obj_ba9a6edc_4303_48f4_b666_c05e102d831e o )  ) ) ( type_8a20359a_f817_4615_b931_db22beaa4395_Class2 ( obj_ba9a6edc_4303_48f4_b666_c05e102d831e o )  ) )):named c25))
(assert (! (exists ((o Int)) (and ( type_8a20359a_f817_4615_b931_db22beaa4395_Class32 ( obj_ba9a6edc_4303_48f4_b666_c05e102d831e o )  )  ( type_8a20359a_f817_4615_b931_db22beaa4395_Class2 ( obj_ba9a6edc_4303_48f4_b666_c05e102d831e o )  ) )):named c26))
(assert (! (exists ((o Int)) (and (and (and (and (and ( type_8a20359a_f817_4615_b931_db22beaa4395_Class33 ( obj_ba9a6edc_4303_48f4_b666_c05e102d831e o )  )  ( type_8a20359a_f817_4615_b931_db22beaa4395_Class13 ( obj_ba9a6edc_4303_48f4_b666_c05e102d831e o )  ) ) ( type_8a20359a_f817_4615_b931_db22beaa4395_Class16 ( obj_ba9a6edc_4303_48f4_b666_c05e102d831e o )  ) ) ( type_8a20359a_f817_4615_b931_db22beaa4395_Class15 ( obj_ba9a6edc_4303_48f4_b666_c05e102d831e o )  ) ) ( type_8a20359a_f817_4615_b931_db22beaa4395_Class41 ( obj_ba9a6edc_4303_48f4_b666_c05e102d831e o )  ) ) ( type_8a20359a_f817_4615_b931_db22beaa4395_Class2 ( obj_ba9a6edc_4303_48f4_b666_c05e102d831e o )  ) )):named c27))
(assert (! (exists ((o Int)) ( type_8a20359a_f817_4615_b931_db22beaa4395_Class34 ( obj_ba9a6edc_4303_48f4_b666_c05e102d831e o )  ) ):named c28))
(assert (! (exists ((o Int)) (and ( type_8a20359a_f817_4615_b931_db22beaa4395_Class35 ( obj_ba9a6edc_4303_48f4_b666_c05e102d831e o )  )  ( type_8a20359a_f817_4615_b931_db22beaa4395_Class2 ( obj_ba9a6edc_4303_48f4_b666_c05e102d831e o )  ) )):named c29))
(assert (! (exists ((o Int)) ( type_8a20359a_f817_4615_b931_db22beaa4395_Class36 ( obj_ba9a6edc_4303_48f4_b666_c05e102d831e o )  ) ):named c30))
(assert (! (exists ((o Int)) ( type_8a20359a_f817_4615_b931_db22beaa4395_Class37 ( obj_ba9a6edc_4303_48f4_b666_c05e102d831e o )  ) ):named c31))
(assert (! (exists ((o Int)) (and ( type_8a20359a_f817_4615_b931_db22beaa4395_Class38 ( obj_ba9a6edc_4303_48f4_b666_c05e102d831e o )  )  ( type_8a20359a_f817_4615_b931_db22beaa4395_Class2 ( obj_ba9a6edc_4303_48f4_b666_c05e102d831e o )  ) )):named c32))
(assert (! (exists ((o Int)) ( type_8a20359a_f817_4615_b931_db22beaa4395_Class39 ( obj_ba9a6edc_4303_48f4_b666_c05e102d831e o )  ) ):named c33))
(assert (! (exists ((o Int)) (and (and (and (and (and (and ( type_8a20359a_f817_4615_b931_db22beaa4395_Class4 ( obj_ba9a6edc_4303_48f4_b666_c05e102d831e o )  )  ( type_8a20359a_f817_4615_b931_db22beaa4395_Class33 ( obj_ba9a6edc_4303_48f4_b666_c05e102d831e o )  ) ) ( type_8a20359a_f817_4615_b931_db22beaa4395_Class13 ( obj_ba9a6edc_4303_48f4_b666_c05e102d831e o )  ) ) ( type_8a20359a_f817_4615_b931_db22beaa4395_Class16 ( obj_ba9a6edc_4303_48f4_b666_c05e102d831e o )  ) ) ( type_8a20359a_f817_4615_b931_db22beaa4395_Class15 ( obj_ba9a6edc_4303_48f4_b666_c05e102d831e o )  ) ) ( type_8a20359a_f817_4615_b931_db22beaa4395_Class41 ( obj_ba9a6edc_4303_48f4_b666_c05e102d831e o )  ) ) ( type_8a20359a_f817_4615_b931_db22beaa4395_Class2 ( obj_ba9a6edc_4303_48f4_b666_c05e102d831e o )  ) )):named c34))
(assert (! (exists ((o Int)) (and (and (and ( type_8a20359a_f817_4615_b931_db22beaa4395_Class40 ( obj_ba9a6edc_4303_48f4_b666_c05e102d831e o )  )  ( type_8a20359a_f817_4615_b931_db22beaa4395_Class21 ( obj_ba9a6edc_4303_48f4_b666_c05e102d831e o )  ) ) ( type_8a20359a_f817_4615_b931_db22beaa4395_Class2 ( obj_ba9a6edc_4303_48f4_b666_c05e102d831e o )  ) ) ( type_8a20359a_f817_4615_b931_db22beaa4395_Class20 ( obj_ba9a6edc_4303_48f4_b666_c05e102d831e o )  ) )):named c35))
(assert (! (exists ((o Int)) (and (and (and ( type_8a20359a_f817_4615_b931_db22beaa4395_Class41 ( obj_ba9a6edc_4303_48f4_b666_c05e102d831e o )  )  ( type_8a20359a_f817_4615_b931_db22beaa4395_Class16 ( obj_ba9a6edc_4303_48f4_b666_c05e102d831e o )  ) ) ( type_8a20359a_f817_4615_b931_db22beaa4395_Class15 ( obj_ba9a6edc_4303_48f4_b666_c05e102d831e o )  ) ) ( type_8a20359a_f817_4615_b931_db22beaa4395_Class2 ( obj_ba9a6edc_4303_48f4_b666_c05e102d831e o )  ) )):named c36))
(assert (! (exists ((o Int)) (and (and (and ( type_8a20359a_f817_4615_b931_db22beaa4395_Class42 ( obj_ba9a6edc_4303_48f4_b666_c05e102d831e o )  )  ( type_8a20359a_f817_4615_b931_db22beaa4395_Class22 ( obj_ba9a6edc_4303_48f4_b666_c05e102d831e o )  ) ) ( type_8a20359a_f817_4615_b931_db22beaa4395_Class35 ( obj_ba9a6edc_4303_48f4_b666_c05e102d831e o )  ) ) ( type_8a20359a_f817_4615_b931_db22beaa4395_Class2 ( obj_ba9a6edc_4303_48f4_b666_c05e102d831e o )  ) )):named c37))
(assert (! (exists ((o Int)) ( type_8a20359a_f817_4615_b931_db22beaa4395_Class43 ( obj_ba9a6edc_4303_48f4_b666_c05e102d831e o )  ) ):named c38))
(assert (! (exists ((o Int)) (and (and (and (and (and (and ( type_8a20359a_f817_4615_b931_db22beaa4395_Class44 ( obj_ba9a6edc_4303_48f4_b666_c05e102d831e o )  )  ( type_8a20359a_f817_4615_b931_db22beaa4395_Class33 ( obj_ba9a6edc_4303_48f4_b666_c05e102d831e o )  ) ) ( type_8a20359a_f817_4615_b931_db22beaa4395_Class13 ( obj_ba9a6edc_4303_48f4_b666_c05e102d831e o )  ) ) ( type_8a20359a_f817_4615_b931_db22beaa4395_Class16 ( obj_ba9a6edc_4303_48f4_b666_c05e102d831e o )  ) ) ( type_8a20359a_f817_4615_b931_db22beaa4395_Class15 ( obj_ba9a6edc_4303_48f4_b666_c05e102d831e o )  ) ) ( type_8a20359a_f817_4615_b931_db22beaa4395_Class41 ( obj_ba9a6edc_4303_48f4_b666_c05e102d831e o )  ) ) ( type_8a20359a_f817_4615_b931_db22beaa4395_Class2 ( obj_ba9a6edc_4303_48f4_b666_c05e102d831e o )  ) )):named c39))
(assert (! (exists ((o Int)) ( type_8a20359a_f817_4615_b931_db22beaa4395_Class45 ( obj_ba9a6edc_4303_48f4_b666_c05e102d831e o )  ) ):named c40))
(assert (! (exists ((o Int)) ( type_8a20359a_f817_4615_b931_db22beaa4395_Class5 ( obj_ba9a6edc_4303_48f4_b666_c05e102d831e o )  ) ):named c41))
(assert (! (exists ((o Int)) (and (and (and (and ( type_8a20359a_f817_4615_b931_db22beaa4395_Class6 ( obj_ba9a6edc_4303_48f4_b666_c05e102d831e o )  )  ( type_8a20359a_f817_4615_b931_db22beaa4395_Class22 ( obj_ba9a6edc_4303_48f4_b666_c05e102d831e o )  ) ) ( type_8a20359a_f817_4615_b931_db22beaa4395_Class35 ( obj_ba9a6edc_4303_48f4_b666_c05e102d831e o )  ) ) ( type_8a20359a_f817_4615_b931_db22beaa4395_Class2 ( obj_ba9a6edc_4303_48f4_b666_c05e102d831e o )  ) ) ( type_8a20359a_f817_4615_b931_db22beaa4395_Class42 ( obj_ba9a6edc_4303_48f4_b666_c05e102d831e o )  ) )):named c42))
(assert (! (exists ((o Int)) ( type_8a20359a_f817_4615_b931_db22beaa4395_Class7 ( obj_ba9a6edc_4303_48f4_b666_c05e102d831e o )  ) ):named c43))
(assert (! (exists ((o Int)) (and (and (and (and (and ( type_8a20359a_f817_4615_b931_db22beaa4395_Class8 ( obj_ba9a6edc_4303_48f4_b666_c05e102d831e o )  )  ( type_8a20359a_f817_4615_b931_db22beaa4395_Class16 ( obj_ba9a6edc_4303_48f4_b666_c05e102d831e o )  ) ) ( type_8a20359a_f817_4615_b931_db22beaa4395_Class15 ( obj_ba9a6edc_4303_48f4_b666_c05e102d831e o )  ) ) ( type_8a20359a_f817_4615_b931_db22beaa4395_Class41 ( obj_ba9a6edc_4303_48f4_b666_c05e102d831e o )  ) ) ( type_8a20359a_f817_4615_b931_db22beaa4395_Class10 ( obj_ba9a6edc_4303_48f4_b666_c05e102d831e o )  ) ) ( type_8a20359a_f817_4615_b931_db22beaa4395_Class2 ( obj_ba9a6edc_4303_48f4_b666_c05e102d831e o )  ) )):named c44))
(assert (! (exists ((o Int)) (and (and (and (and (and (and (and ( type_8a20359a_f817_4615_b931_db22beaa4395_Class9 ( obj_ba9a6edc_4303_48f4_b666_c05e102d831e o )  )  ( type_8a20359a_f817_4615_b931_db22beaa4395_Class22 ( obj_ba9a6edc_4303_48f4_b666_c05e102d831e o )  ) ) ( type_8a20359a_f817_4615_b931_db22beaa4395_Class35 ( obj_ba9a6edc_4303_48f4_b666_c05e102d831e o )  ) ) ( type_8a20359a_f817_4615_b931_db22beaa4395_Class16 ( obj_ba9a6edc_4303_48f4_b666_c05e102d831e o )  ) ) ( type_8a20359a_f817_4615_b931_db22beaa4395_Class15 ( obj_ba9a6edc_4303_48f4_b666_c05e102d831e o )  ) ) ( type_8a20359a_f817_4615_b931_db22beaa4395_Class0 ( obj_ba9a6edc_4303_48f4_b666_c05e102d831e o )  ) ) ( type_8a20359a_f817_4615_b931_db22beaa4395_Class41 ( obj_ba9a6edc_4303_48f4_b666_c05e102d831e o )  ) ) ( type_8a20359a_f817_4615_b931_db22beaa4395_Class2 ( obj_ba9a6edc_4303_48f4_b666_c05e102d831e o )  ) )):named c45))

 ;end of formula 